tsp_instances/TSP20/instance100.tsp
NODE_COORD_SECTION
0 17 158
1 32 4
2 122 156
3 138 199
4 94 24
5 172 182
6 41 121
7 165 140
8 90 134
9 104 157
10 156 91
11 137 132
12 52 71
13 20 175
14 104 144
15 125 1
16 19 187
17 132 21
18 134 107
19 195 90
