tsp_instances/TSP20/instance100.opt.tour
TOUR_SECTION
1
7
13
2
5
16
18
20
11
19
12
8
6
4
3
10
15
9
17
14
-1